# Solution for model r3_t36_m6_9 Batch Number: 5
# Finished Task: 32 / 36
# Makespan: 1072.0, Total Distance: 1039.0, Total Time: 9.7795
# R O S F Batch
0 0 36 0.0 0.0 -1
1 1 37 0.0 0.0 -1
2 2 35 0.0 0.0 -1
3 -1 -1 -1.0 -1.0 4
4 0 9 632.0 653.0 1
5 -1 -1 -1.0 -1.0 3
6 2 7 736.0 758.0 2
7 2 14 860.0 894.0 4
8 -1 -1 -1.0 -1.0 3
9 0 15 701.0 736.0 2
10 1 16 366.0 396.0 0
11 1 19 639.0 662.0 2
12 2 31 417.0 441.0 0
13 2 6 595.0 632.0 1
14 2 22 920.0 946.0 4
15 0 27 814.0 853.0 2
16 1 33 408.0 441.0 0
17 1 10 263.0 301.0 0
18 1 -1 961.0 998.0 3
19 1 18 702.0 723.0 2
20 1 17 228.0 251.0 0
21 -1 -1 -1.0 -1.0 3
22 2 38 968.0 1007.0 4
23 0 32 329.0 354.0 0
24 0 4 518.0 546.0 1
25 2 13 490.0 512.0 1
26 0 23 204.0 232.0 0
27 0 -1 924.0 961.0 3
28 2 12 339.0 369.0 0
29 1 11 567.0 596.0 1
30 0 24 404.0 441.0 0
31 2 25 457.0 490.0 1
32 0 30 373.0 394.0 0
33 1 29 441.0 461.0 1
34 2 28 318.0 339.0 0
35 2 34 257.0 278.0 0
36 0 26 173.0 204.0 0
37 1 20 46.0 68.0 0
38 2 -1 1042.0 1072.0 4
